c nIsolatedPIs 0
c maxPI 32
p cnf 104 217
c gate 33 -16 -32 0
-16 -33 0
-32 -33 0
16 32 33 0
c gate 34 16 32 0
16 -34 0
32 -34 0
-16 -32 34 0
c gate 35 -33 -34 0
-33 -35 0
-34 -35 0
33 34 35 0
c gate 36 15 -31 0
15 -36 0
-31 -36 0
-15 31 36 0
c gate 37 -13 29 0
-13 -37 0
29 -37 0
13 -29 37 0
c gate 38 14 -30 0
14 -38 0
-30 -38 0
-14 30 38 0
c gate 39 -14 30 0
-14 -39 0
30 -39 0
14 -30 39 0
c gate 40 -38 -39 0
-38 -40 0
-39 -40 0
38 39 40 0
c gate 41 37 40 0
37 -41 0
40 -41 0
-37 -40 41 0
c gate 42 12 -28 0
12 -42 0
-28 -42 0
-12 28 42 0
c gate 43 11 -27 0
11 -43 0
-27 -43 0
-11 27 43 0
c gate 44 -10 26 0
-10 -44 0
26 -44 0
10 -26 44 0
c gate 45 10 -26 0
10 -45 0
-26 -45 0
-10 26 45 0
c gate 46 -9 25 0
-9 -46 0
25 -46 0
9 -25 46 0
c gate 47 7 -23 0
7 -47 0
-23 -47 0
-7 23 47 0
c gate 48 -6 22 0
-6 -48 0
22 -48 0
6 -22 48 0
c gate 49 2 -18 0
2 -49 0
-18 -49 0
-2 18 49 0
c gate 50 -1 17 0
-1 -50 0
17 -50 0
1 -17 50 0
c gate 51 -49 50 0
-49 -51 0
50 -51 0
49 -50 51 0
c gate 52 -3 19 0
-3 -52 0
19 -52 0
3 -19 52 0
c gate 53 -2 18 0
-2 -53 0
18 -53 0
2 -18 53 0
c gate 54 -52 -53 0
-52 -54 0
-53 -54 0
52 53 54 0
c gate 55 -51 54 0
-51 -55 0
54 -55 0
51 -54 55 0
c gate 56 4 -20 0
4 -56 0
-20 -56 0
-4 20 56 0
c gate 57 3 -19 0
3 -57 0
-19 -57 0
-3 19 57 0
c gate 58 -56 -57 0
-56 -58 0
-57 -58 0
56 57 58 0
c gate 59 -55 58 0
-55 -59 0
58 -59 0
55 -58 59 0
c gate 60 -5 21 0
-5 -60 0
21 -60 0
5 -21 60 0
c gate 61 -4 20 0
-4 -61 0
20 -61 0
4 -20 61 0
c gate 62 -60 -61 0
-60 -62 0
-61 -62 0
60 61 62 0
c gate 63 -59 62 0
-59 -63 0
62 -63 0
59 -62 63 0
c gate 64 6 -22 0
6 -64 0
-22 -64 0
-6 22 64 0
c gate 65 5 -21 0
5 -65 0
-21 -65 0
-5 21 65 0
c gate 66 -64 -65 0
-64 -66 0
-65 -66 0
64 65 66 0
c gate 67 -63 66 0
-63 -67 0
66 -67 0
63 -66 67 0
c gate 68 -48 -67 0
-48 -68 0
-67 -68 0
48 67 68 0
c gate 69 -47 -68 0
-47 -69 0
-68 -69 0
47 68 69 0
c gate 70 -7 23 0
-7 -70 0
23 -70 0
7 -23 70 0
c gate 71 -8 24 0
-8 -71 0
24 -71 0
8 -24 71 0
c gate 72 -70 -71 0
-70 -72 0
-71 -72 0
70 71 72 0
c gate 73 -69 72 0
-69 -73 0
72 -73 0
69 -72 73 0
c gate 74 8 -24 0
8 -74 0
-24 -74 0
-8 24 74 0
c gate 75 9 -25 0
9 -75 0
-25 -75 0
-9 25 75 0
c gate 76 -74 -75 0
-74 -76 0
-75 -76 0
74 75 76 0
c gate 77 -73 76 0
-73 -77 0
76 -77 0
73 -76 77 0
c gate 78 -46 -77 0
-46 -78 0
-77 -78 0
46 77 78 0
c gate 79 -45 -78 0
-45 -79 0
-78 -79 0
45 78 79 0
c gate 80 -44 -79 0
-44 -80 0
-79 -80 0
44 79 80 0
c gate 81 -43 -80 0
-43 -81 0
-80 -81 0
43 80 81 0
c gate 82 -12 28 0
-12 -82 0
28 -82 0
12 -28 82 0
c gate 83 -11 27 0
-11 -83 0
27 -83 0
11 -27 83 0
c gate 84 -82 -83 0
-82 -84 0
-83 -84 0
82 83 84 0
c gate 85 -81 84 0
-81 -85 0
84 -85 0
81 -84 85 0
c gate 86 -42 -85 0
-42 -86 0
-85 -86 0
42 85 86 0
c gate 87 13 -29 0
13 -87 0
-29 -87 0
-13 29 87 0
c gate 88 -38 -87 0
-38 -88 0
-87 -88 0
38 87 88 0
c gate 89 86 88 0
86 -89 0
88 -89 0
-86 -88 89 0
c gate 90 -15 31 0
-15 -90 0
31 -90 0
15 -31 90 0
c gate 91 -39 -90 0
-39 -91 0
-90 -91 0
39 90 91 0
c gate 92 -89 91 0
-89 -92 0
91 -92 0
89 -91 92 0
c gate 93 -41 92 0
-41 -93 0
92 -93 0
41 -92 93 0
c gate 94 -36 -93 0
-36 -94 0
-93 -94 0
36 93 94 0
c gate 95 -35 94 0
-35 -95 0
94 -95 0
35 -94 95 0
c gate 96 35 -94 0
35 -96 0
-94 -96 0
-35 94 96 0
c gate 97 -95 -96 0
-95 -97 0
-96 -97 0
95 96 97 0
c gate 98 -35 -92 0
-35 -98 0
-92 -98 0
35 92 98 0
c gate 99 35 92 0
35 -99 0
92 -99 0
-35 -92 99 0
c gate 100 -98 -99 0
-98 -100 0
-99 -100 0
98 99 100 0
c gate 101 97 -100 0
97 -101 0
-100 -101 0
-97 100 101 0
c gate 102 -97 100 0
-97 -102 0
100 -102 0
97 -100 102 0
c gate 103 -101 -102 0
-101 -103 0
-102 -103 0
101 102 103 0
c gate 104 -35 -103 0
-35 -104 0
-103 -104 0
35 103 104 0
c PO
104 0
